; ISZERO ISZERO PUSH 0x01 EQ ISZERO => ISZERO
(set-option :produce-proofs true)
; 
(set-info :status unknown)
(declare-fun storage_t ((_ BitVec 256) Int (_ BitVec 256)) (_ BitVec 256))
(declare-fun storage_s ((_ BitVec 256) Int (_ BitVec 256)) (_ BitVec 256))
(declare-fun exc_halt_t (Int) Bool)
(declare-fun exc_halt_s (Int) Bool)
(declare-fun stack_t ((_ BitVec 256) Int (_ BitVec 6)) (_ BitVec 256))
(declare-fun stack_s ((_ BitVec 256) Int (_ BitVec 6)) (_ BitVec 256))
(declare-fun sc_t (Int) (_ BitVec 6))
(declare-fun sc_s (Int) (_ BitVec 6))
(declare-fun used_gas_t ((_ BitVec 256) Int) Int)
(declare-fun used_gas_s ((_ BitVec 256) Int) Int)
(assert
 (exists ((x_0 (_ BitVec 256)) )(let (($x5425 (forall ((w (_ BitVec 256)) )(let ((?x2462 (storage_t x_0 1 w)))
 (let ((?x7240 (storage_s x_0 5 w)))
 (= ?x7240 ?x2462))))
 ))
 (let (($x8377 (exc_halt_t 1)))
 (let (($x11317 (exc_halt_s 5)))
 (let (($x5708 (= $x11317 $x8377)))
 (let (($x10937 (forall ((n (_ BitVec 6)) )(let ((?x7964 (stack_t x_0 1 n)))
 (let ((?x4339 (stack_s x_0 5 n)))
 (let (($x3727 (= ?x4339 ?x7964)))
 (or (bvsle (sc_t 1) n) $x3727)))))
 ))
 (let ((?x7154 (sc_t 1)))
 (let ((?x4319 (sc_s 5)))
 (let (($x5444 (= ?x4319 ?x7154)))
 (let ((?x6602 (used_gas_t x_0 0)))
 (let ((?x2519 (used_gas_s x_0 0)))
 (let (($x2998 (= ?x2519 ?x6602)))
 (let (($x6787 (forall ((w (_ BitVec 256)) )(let ((?x5498 (storage_t x_0 0 w)))
 (let ((?x6027 (storage_s x_0 0 w)))
 (= ?x6027 ?x5498))))
 ))
 (let (($x56 (exc_halt_t 0)))
 (let (($x57 (exc_halt_s 0)))
 (let (($x58 (= $x57 $x56)))
 (let (($x10098 (forall ((n (_ BitVec 6)) )(let ((?x10111 (stack_t x_0 0 n)))
 (let ((?x3353 (stack_s x_0 0 n)))
 (let (($x8171 (= ?x3353 ?x10111)))
 (or $x8171 (bvsle (sc_t 0) n))))))
 ))
 (let ((?x63 (sc_t 0)))
 (let ((?x72 (sc_s 0)))
 (let (($x73 (= ?x72 ?x63)))
 (let (($x2871 (forall ((w (_ BitVec 256)) )(let ((?x5498 (storage_t x_0 0 w)))
 (let ((?x2462 (storage_t x_0 1 w)))
 (= ?x2462 ?x5498))))
 ))
 (let (($x2814 (forall ((n (_ BitVec 6)) )(or (bvsle (bvadd (_ bv63 6) (sc_t 0)) n) (= (stack_t x_0 1 n) (stack_t x_0 0 n))))
 ))
 (let (($x1992 (= (stack_t x_0 1 (bvadd (_ bv63 6) ?x7154)) (ite (= (stack_t x_0 0 (bvadd (_ bv63 6) ?x63)) (_ bv0 256)) (_ bv1 256) (_ bv0 256)))))
 (let (($x3601 (= $x11317 (or (exc_halt_s 4) (not (bvsle (_ bv0 6) (bvadd (_ bv63 6) (sc_s 4))))))))
 (let (($x11934 (forall ((w (_ BitVec 256)) )(let ((?x5026 (storage_s x_0 4 w)))
 (let ((?x7240 (storage_s x_0 5 w)))
 (= ?x7240 ?x5026))))
 ))
 (let (($x672 (forall ((n (_ BitVec 6)) )(or (bvsle (bvadd (_ bv63 6) (sc_s 4)) n) (= (stack_s x_0 5 n) (stack_s x_0 4 n))))
 ))
 (let ((?x5826 (ite (= (stack_s x_0 4 (bvadd (_ bv63 6) (sc_s 4))) (_ bv0 256)) (_ bv1 256) (_ bv0 256))))
 (let (($x7172 (exc_halt_s 4)))
 (let (($x547 (= $x7172 (or (exc_halt_s 3) (not (bvsle (_ bv0 6) (bvadd (_ bv62 6) (sc_s 3))))))))
 (let (($x4705 (forall ((w (_ BitVec 256)) )(let ((?x3289 (storage_s x_0 3 w)))
 (let ((?x5026 (storage_s x_0 4 w)))
 (= ?x5026 ?x3289))))
 ))
 (let (($x5438 (forall ((n (_ BitVec 6)) )(or (= (stack_s x_0 4 n) (stack_s x_0 3 n)) (bvsle (bvadd (_ bv62 6) (sc_s 3)) n)))
 ))
 (let (($x10204 (= (stack_s x_0 3 (bvadd (_ bv63 6) (sc_s 3))) (stack_s x_0 3 (bvadd (_ bv62 6) (sc_s 3))))))
 (let ((?x4305 (sc_s 4)))
 (let ((?x4400 (bvadd (_ bv63 6) ?x4305)))
 (let ((?x10069 (stack_s x_0 4 ?x4400)))
 (let (($x247 (exc_halt_s 2)))
 (let (($x6360 (or $x247 (not (= ((_ extract 6 6) (bvadd (_ bv1 7) (concat (_ bv0 1) (sc_s 2)))) (_ bv0 1))))))
 (let (($x292 (exc_halt_s 3)))
 (let (($x11169 (forall ((w (_ BitVec 256)) )(let ((?x10944 (storage_s x_0 2 w)))
 (let ((?x3289 (storage_s x_0 3 w)))
 (= ?x3289 ?x10944))))
 ))
 (let (($x511 (forall ((n (_ BitVec 6)) )(or (bvsle (sc_s 2) n) (= (stack_s x_0 3 n) (stack_s x_0 2 n))))
 ))
 (let (($x8019 (= $x247 (or (exc_halt_s 1) (not (bvsle (_ bv0 6) (bvadd (_ bv63 6) (sc_s 1))))))))
 (let (($x2803 (forall ((w (_ BitVec 256)) )(let ((?x5792 (storage_s x_0 1 w)))
 (let ((?x10944 (storage_s x_0 2 w)))
 (= ?x10944 ?x5792))))
 ))
 (let (($x7381 (forall ((n (_ BitVec 6)) )(or (bvsle (bvadd (_ bv63 6) (sc_s 1)) n) (= (stack_s x_0 2 n) (stack_s x_0 1 n))))
 ))
 (let ((?x10239 (ite (= (stack_s x_0 1 (bvadd (_ bv63 6) (sc_s 1))) (_ bv0 256)) (_ bv1 256) (_ bv0 256))))
 (let (($x8128 (forall ((w (_ BitVec 256)) )(let ((?x6027 (storage_s x_0 0 w)))
 (let ((?x5792 (storage_s x_0 1 w)))
 (= ?x5792 ?x6027))))
 ))
 (let (($x2676 (forall ((n (_ BitVec 6)) )(or (bvsle (bvadd (_ bv63 6) (sc_s 0)) n) (= (stack_s x_0 1 n) (stack_s x_0 0 n))))
 ))
 (let ((?x154 (sc_s 1)))
 (let ((?x354 (bvadd (_ bv63 6) ?x154)))
 (let ((?x898 (stack_s x_0 1 ?x354)))
 (let (($x3091 (= ?x898 (ite (= (stack_s x_0 0 (bvadd (_ bv63 6) ?x72)) (_ bv0 256)) (_ bv1 256) (_ bv0 256)))))
 (let (($x11752 (forall ((w (_ BitVec 256)) )(let ((?x6027 (storage_s x_0 0 w)))
 (= ?x6027 (_ bv0 256))))
 ))
 (let (($x11814 (= ?x2519 0)))
 (let (($x7940 (= (stack_s x_0 0 (_ bv0 6)) x_0)))
 (let (($x7315 (= ?x72 (_ bv1 6))))
 (and $x7315 $x7940 (not $x57) $x11814 $x11752 $x3091 (= (used_gas_s x_0 1) (+ 3 ?x2519)) (= ?x154 ?x72) $x2676 $x8128 (= (exc_halt_s 1) (or $x57 (not (bvsle (_ bv0 6) (bvadd (_ bv63 6) ?x72))))) (= (stack_s x_0 2 (bvadd (_ bv63 6) (sc_s 2))) ?x10239) (= (used_gas_s x_0 2) (+ 3 (used_gas_s x_0 1))) (= (sc_s 2) ?x154) $x7381 $x2803 $x8019 (= (stack_s x_0 3 (sc_s 2)) (_ bv1 256)) (= (used_gas_s x_0 3) (+ 3 (used_gas_s x_0 2))) (= (sc_s 3) (bvadd (_ bv1 6) (sc_s 2))) $x511 $x11169 (= $x292 $x6360) (= ?x10069 (ite $x10204 (_ bv1 256) (_ bv0 256))) (= (used_gas_s x_0 4) (+ 3 (used_gas_s x_0 3))) (= ?x4305 (bvadd (_ bv63 6) (sc_s 3))) $x5438 $x4705 $x547 (= (stack_s x_0 5 (bvadd (_ bv63 6) ?x4319)) ?x5826) (= (used_gas_s x_0 5) (+ 3 (used_gas_s x_0 4))) (= ?x4319 ?x4305) $x672 $x11934 $x3601 $x1992 (= (used_gas_t x_0 1) (+ 3 ?x6602)) (= ?x7154 ?x63) $x2814 $x2871 (= $x8377 (or $x56 (not (bvsle (_ bv0 6) (bvadd (_ bv63 6) ?x63))))) $x73 $x10098 $x58 $x6787 $x2998 (not (and $x5444 $x10937 $x5708 $x5425)))))))))))))))))))))))))))))))))))))))))))))))))))))))))
 )
(check-sat)
(get-proof)
